\ Model Routes
\ LP format - for model browsing. Use MPS format to capture full model detail.
Maximize
  - 191.7153353028244 R{0,0} + 623.2046552982704 R{0,1}
   + 623.2046552982704 R{0,2} - 249.2301939667805 R{0,3}
   + 234.7650315204939 R{0,4} + 397.2891588355392 R{0,5}
   + 568.2280287393723 R{0,6} + 227.0117100192371 R{0,7}
   + 208.081007134918 R{0,8} + 827.8992369343669 R{0,9}
   + 449.0745601781551 R{0,10} + 426.0462613747952 R{0,11}
   + 486.6829182142316 R{0,12} - 256.140831891889 R{1,0}
   - 58.16416216887956 R{1,1} + 669.0062570112706 R{1,2}
   + 332.3724757400091 R{1,3} + 223.5535695116518 R{1,4}
   + 474.4059924350352 R{1,5} + 474.4059924350352 R{1,6}
   + 223.8350230091162 R{1,7} + 218.0275660033432 R{1,8}
   + 246.32965578047 R{1,9} + 1198.881248318718 R{2,0}
   + 1198.881248318718 R{2,1} - 278.4443928850388 R{2,2}
   - 59.13410337035452 R{2,3} + 602.7748664658451 R{2,4}
   + 1100.505917706273 R{2,5} + 473.9263938819845 R{2,6}
   + 591.0325885092791 R{2,7} + 832.465065802254 R{2,8}
   + 188.8677732867749 R{2,9} + 629.9638570536306 R{2,10}
   + 916.1855209384714 R{2,11} + 612.6274307492583 R{2,12}
   + 117.3864940348481 R{2,13} + 815.3655891975814 R{2,14}
   + 780.8017984577644 R{2,15} + 780.8017984577644 R{2,16}
   + 828.8248253792985 R{2,17} - 260.2482995389823 R{3,0}
   + 967.7221973521264 R{3,1} + 1335.663160618656 R{3,2}
   + 1696.665877888776 R{3,3} + 1029.907344799126 R{3,4}
   + 1112.243776507833 R{3,5} + 1150.209654172318 R{3,6}
   + 1710.078424862386 R{3,7} + 935.5005260072051 R{3,8}
   + 753.913214149833 R{3,9} + 1262.498545764874 R{3,10}
   + 1102.592359695514 R{3,11} + 967.9309946572519 R{3,12}
   + 779.3520994510202 R{3,13} + 262.4610149417111 R{3,14}
   + 803.0097833094203 R{3,15} + 797.4802130361712 R{3,16}
   + 540.8462816544355 R{3,17} + 496.3855244783409 R{3,18}
   + 596.9738816608342 R{3,19} + 1332.969026028751 R{3,20}
   - 242.5208875955131 R{4,0} + 1055.572474837385 R{4,1}
   + 1576.196574514046 R{4,2} + 1267.488355312007 R{4,3}
   + 1176.459096619492 R{4,4} + 914.66711671503 R{4,5}
   + 1427.515206076762 R{4,6} + 1096.288501224108 R{4,7}
   + 554.0894674024673 R{4,8} + 1036.946534596658 R{4,9}
   + 1427.515206076762 R{4,10} + 1480.008908711559 R{4,11}
   + 1757.430793177176 R{4,12} + 2430.336573067722 R{4,13}
   + 1221.440223401676 R{4,14} + 894.6987856444464 R{4,15}
   + 1417.544228973378 R{4,16} + 1624.684587038847 R{4,17}
   + 1100.951904677772 R{4,18} + 1294.750778626064 R{4,19}
   - 231.9775664337766 R{5,0} + 40.49903117334031 R{5,1}
   + 364.0546919427258 R{5,2} + 703.2681921774806 R{5,3}
   + 584.0488555326215 R{5,4} + 593.6360726011585 R{5,5}
   + 650.7326103963584 R{5,6} + 386.1642467379481 R{5,7}
   + 531.7869833963746 R{5,8} + 326.6736957043017 R{5,9}
   + 541.9772087266804 R{5,10} + 270.8460675360154 R{5,11}
   + 183.2584391902156 R{5,12} + 447.5514873455106 R{5,13}
   + 113.3725251672978 R{5,14} + 813.9897172874807 R{5,15}
   + 247.6560097732295 R{5,16} + 603.7861664679828 R{5,17}
   + 204.6061281555102 R{5,18} - 231.1436095783099 R{6,0}
   + 352.5135528432641 R{6,1} + 1376.623169502638 R{6,2}
   + 1941.768530245978 R{6,3} + 1591.139471331023 R{6,4}
   + 1989.487731643801 R{6,5} + 1910.250918921071 R{6,6}
   + 1596.078589915526 R{6,7} + 1342.543312262514 R{6,8}
   + 557.90534465549 R{6,9} + 1109.892830603472 R{6,10}
   + 1335.417761970892 R{6,11} + 1766.017570838269 R{6,12}
   + 1246.323760274308 R{6,13} + 848.2167405731566 R{6,14}
   + 828.9097595394651 R{6,15} + 1855.142541414715 R{6,16}
   + 405.6545260264207 R{6,17} + 1856.933374262586 R{6,18}
   + 664.6297776722066 R{6,19} + 1991.462738034768 R{6,20}
   + 962.4012937828727 R{6,21} + 1186.819639827495 R{6,22}
   + 1340.76336872467 R{6,23} + 1992.244740345286 R{6,24}
   + 759.1690323983923 R{6,25} + 1510.846876078733 R{6,26}
   + 803.0341226436335 R{6,27}
Subject To
 R00: R{0,0} <= 1
 R01: R{0,1} <= 1
 R02: R{0,2} <= 1
 R03: R{0,3} <= 1
 R04: R{0,4} <= 1
 R05: R{0,5} <= 1
 R06: R{0,6} <= 1
 R07: R{0,7} <= 1
 R08: R{0,8} <= 1
 R09: R{0,9} <= 1
 R010: R{0,10} <= 1
 R011: R{0,11} <= 1
 R012: R{0,12} <= 1
 R013: R{1,0} <= 1
 R014: R{1,1} <= 1
 R015: R{1,2} <= 1
 R016: R{1,3} <= 1
 R017: R{1,4} <= 1
 R018: R{1,5} <= 1
 R019: R{1,6} <= 1
 R020: R{1,7} <= 1
 R021: R{1,8} <= 1
 R022: R{1,9} <= 1
 R023: R{2,0} <= 1
 R024: R{2,1} <= 1
 R025: R{2,2} <= 1
 R026: R{2,3} <= 1
 R027: R{2,4} <= 1
 R028: R{2,5} <= 1
 R029: R{2,6} <= 1
 R030: R{2,7} <= 1
 R031: R{2,8} <= 1
 R032: R{2,9} <= 1
 R033: R{2,10} <= 1
 R034: R{2,11} <= 1
 R035: R{2,12} <= 1
 R036: R{2,13} <= 1
 R037: R{2,14} <= 1
 R038: R{2,15} <= 1
 R039: R{2,16} <= 1
 R040: R{2,17} <= 1
 R041: R{3,0} <= 1
 R042: R{3,1} <= 1
 R043: R{3,2} <= 1
 R044: R{3,3} <= 1
 R045: R{3,4} <= 1
 R046: R{3,5} <= 1
 R047: R{3,6} <= 1
 R048: R{3,7} <= 1
 R049: R{3,8} <= 1
 R050: R{3,9} <= 1
 R051: R{3,10} <= 1
 R052: R{3,11} <= 1
 R053: R{3,12} <= 1
 R054: R{3,13} <= 1
 R055: R{3,14} <= 1
 R056: R{3,15} <= 1
 R057: R{3,16} <= 1
 R058: R{3,17} <= 1
 R059: R{3,18} <= 1
 R060: R{3,19} <= 1
 R061: R{3,20} <= 1
 R062: R{4,0} <= 1
 R063: R{4,1} <= 1
 R064: R{4,2} <= 1
 R065: R{4,3} <= 1
 R066: R{4,4} <= 1
 R067: R{4,5} <= 1
 R068: R{4,6} <= 1
 R069: R{4,7} <= 1
 R070: R{4,8} <= 1
 R071: R{4,9} <= 1
 R072: R{4,10} <= 1
 R073: R{4,11} <= 1
 R074: R{4,12} <= 1
 R075: R{4,13} <= 1
 R076: R{4,14} <= 1
 R077: R{4,15} <= 1
 R078: R{4,16} <= 1
 R079: R{4,17} <= 1
 R080: R{4,18} <= 1
 R081: R{4,19} <= 1
 R082: R{5,0} <= 1
 R083: R{5,1} <= 1
 R084: R{5,2} <= 1
 R085: R{5,3} <= 1
 R086: R{5,4} <= 1
 R087: R{5,5} <= 1
 R088: R{5,6} <= 1
 R089: R{5,7} <= 1
 R090: R{5,8} <= 1
 R091: R{5,9} <= 1
 R092: R{5,10} <= 1
 R093: R{5,11} <= 1
 R094: R{5,12} <= 1
 R095: R{5,13} <= 1
 R096: R{5,14} <= 1
 R097: R{5,15} <= 1
 R098: R{5,16} <= 1
 R099: R{5,17} <= 1
 R0100: R{5,18} <= 1
 R0101: R{6,0} <= 1
 R0102: R{6,1} <= 1
 R0103: R{6,2} <= 1
 R0104: R{6,3} <= 1
 R0105: R{6,4} <= 1
 R0106: R{6,5} <= 1
 R0107: R{6,6} <= 1
 R0108: R{6,7} <= 1
 R0109: R{6,8} <= 1
 R0110: R{6,9} <= 1
 R0111: R{6,10} <= 1
 R0112: R{6,11} <= 1
 R0113: R{6,12} <= 1
 R0114: R{6,13} <= 1
 R0115: R{6,14} <= 1
 R0116: R{6,15} <= 1
 R0117: R{6,16} <= 1
 R0118: R{6,17} <= 1
 R0119: R{6,18} <= 1
 R0120: R{6,19} <= 1
 R0121: R{6,20} <= 1
 R0122: R{6,21} <= 1
 R0123: R{6,22} <= 1
 R0124: R{6,23} <= 1
 R0125: R{6,24} <= 1
 R0126: R{6,25} <= 1
 R0127: R{6,26} <= 1
 R0128: R{6,27} <= 1
 R1_0: R{0,0} + R{0,1} + R{0,2} + R{0,3} + R{0,4} + R{0,5} + R{0,6}
   + R{0,7} + R{0,8} + R{0,9} + R{0,10} + R{0,11} + R{0,12} <= 1
 R1_1: R{1,0} + R{1,1} + R{1,2} + R{1,3} + R{1,4} + R{1,5} + R{1,6}
   + R{1,7} + R{1,8} + R{1,9} <= 1
 R1_2: R{2,0} + R{2,1} + R{2,2} + R{2,3} + R{2,4} + R{2,5} + R{2,6}
   + R{2,7} + R{2,8} + R{2,9} + R{2,10} + R{2,11} + R{2,12} + R{2,13}
   + R{2,14} + R{2,15} + R{2,16} + R{2,17} <= 1
 R1_3: R{3,0} + R{3,1} + R{3,2} + R{3,3} + R{3,4} + R{3,5} + R{3,6}
   + R{3,7} + R{3,8} + R{3,9} + R{3,10} + R{3,11} + R{3,12} + R{3,13}
   + R{3,14} + R{3,15} + R{3,16} + R{3,17} + R{3,18} + R{3,19} + R{3,20}
   <= 1
 R1_4: R{4,0} + R{4,1} + R{4,2} + R{4,3} + R{4,4} + R{4,5} + R{4,6}
   + R{4,7} + R{4,8} + R{4,9} + R{4,10} + R{4,11} + R{4,12} + R{4,13}
   + R{4,14} + R{4,15} + R{4,16} + R{4,17} + R{4,18} + R{4,19} <= 1
 R1_5: R{5,0} + R{5,1} + R{5,2} + R{5,3} + R{5,4} + R{5,5} + R{5,6}
   + R{5,7} + R{5,8} + R{5,9} + R{5,10} + R{5,11} + R{5,12} + R{5,13}
   + R{5,14} + R{5,15} + R{5,16} + R{5,17} + R{5,18} <= 1
 R1_6: R{6,0} + R{6,1} + R{6,2} + R{6,3} + R{6,4} + R{6,5} + R{6,6}
   + R{6,7} + R{6,8} + R{6,9} + R{6,10} + R{6,11} + R{6,12} + R{6,13}
   + R{6,14} + R{6,15} + R{6,16} + R{6,17} + R{6,18} + R{6,19} + R{6,20}
   + R{6,21} + R{6,22} + R{6,23} + R{6,24} + R{6,25} + R{6,26} + R{6,27}
   <= 1
 R2_0: 7 R{6,21} + 7 R{6,25} <= 7
 R2_1: 10 R{1,7} + 10 R{2,9} + 10 R{2,11} + 10 R{3,1} + 10 R{3,2}
   + 10 R{3,3} + 10 R{3,4} + 10 R{3,6} + 10 R{3,7} + 10 R{3,9} + 10 R{3,11}
   + 10 R{3,16} + 10 R{3,19} + 10 R{3,20} + 10 R{5,4} + 10 R{5,5}
   + 10 R{5,7} + 10 R{5,9} + 10 R{5,11} + 10 R{5,16} + 10 R{6,11}
   + 10 R{6,12} + 10 R{6,23} <= 10
 R2_2: <= 0
 R2_3: 4 R{5,1} + 4 R{5,2} + 4 R{5,3} <= 4
 R2_4: <= 0
 R2_5: 5 R{5,1} + 5 R{5,2} + 5 R{5,4} + 5 R{5,8} + 5 R{5,9} + 5 R{5,11}
   + 5 R{5,14} <= 5
 R2_6: 10 R{1,9} + 10 R{2,17} + 10 R{5,7} + 10 R{5,12} + 10 R{6,1}
   + 10 R{6,2} + 10 R{6,3} + 10 R{6,4} + 10 R{6,5} + 10 R{6,6} + 10 R{6,7}
   + 10 R{6,8} + 10 R{6,10} + 10 R{6,11} + 10 R{6,12} + 10 R{6,13}
   + 10 R{6,15} + 10 R{6,16} + 10 R{6,18} + 10 R{6,20} + 10 R{6,23}
   + 10 R{6,24} + 10 R{6,26} <= 10
 R2_7: <= 0
 R2_8: <= 0
 R2_9: 12 R{4,1} + 12 R{4,2} + 12 R{4,3} + 12 R{4,5} + 12 R{4,6}
   + 12 R{4,7} + 12 R{4,8} + 12 R{4,10} + 12 R{4,11} + 12 R{4,12}
   + 12 R{4,13} + 12 R{4,14} + 12 R{4,15} + 12 R{4,16} + 12 R{4,17}
   + 12 R{4,18} + 12 R{4,19} <= 12
 R2_10: 8 R{6,1} + 8 R{6,2} + 8 R{6,3} + 8 R{6,4} + 8 R{6,5} + 8 R{6,7}
   + 8 R{6,8} + 8 R{6,9} + 8 R{6,11} + 8 R{6,12} + 8 R{6,15} + 8 R{6,16}
   + 8 R{6,20} + 8 R{6,23} + 8 R{6,24} + 8 R{6,26} <= 8
 R2_11: <= 0
 R2_12: <= 0
 R2_13: <= 0
 R2_14: <= 0
 R2_15: 11 R{0,0} + 11 R{0,1} + 11 R{0,2} + 11 R{4,1} + 11 R{4,2}
   + 11 R{4,3} + 11 R{4,17} + 11 R{4,18} <= 11
 R2_16: 5 R{0,9} + 5 R{0,12} <= 5
 R2_17: <= 0
 R2_18: <= 0
 R2_19: 11 R{1,3} + 11 R{4,1} + 11 R{4,2} + 11 R{4,3} + 11 R{4,4}
   + 11 R{4,6} + 11 R{4,10} + 11 R{4,11} + 11 R{4,12} + 11 R{4,13}
   + 11 R{4,14} + 11 R{4,16} + 11 R{4,17} + 11 R{4,18} + 11 R{4,19}
   + 11 R{5,5} <= 11
 R2_20: 13 R{0,5} + 13 R{0,8} + 13 R{1,4} + 13 R{1,5} + 13 R{1,6}
   + 13 R{2,5} + 13 R{3,1} + 13 R{3,2} + 13 R{3,3} + 13 R{3,4} + 13 R{3,5}
   + 13 R{3,6} + 13 R{3,7} + 13 R{3,8} + 13 R{3,10} + 13 R{3,12}
   + 13 R{3,20} + 13 R{4,7} + 13 R{5,2} + 13 R{5,3} + 13 R{5,4} + 13 R{5,6}
   + 13 R{5,8} + 13 R{6,8} + 13 R{6,10} + 13 R{6,13} + 13 R{6,14} <= 13
 R2_21: <= 0
 R2_22: 10 R{4,14} + 10 R{4,19} <= 10
 R2_23: 14 R{0,1} + 14 R{0,2} + 14 R{0,6} + 14 R{0,7} + 14 R{0,9}
   + 14 R{0,12} + 14 R{2,0} + 14 R{2,1} + 14 R{2,7} + 14 R{2,8}
   + 14 R{4,19} + 14 R{6,2} + 14 R{6,3} + 14 R{6,5} + 14 R{6,12}
   + 14 R{6,20} + 14 R{6,24} <= 14
 R2_24: 10 R{3,1} + 10 R{3,2} + 10 R{3,3} + 10 R{3,5} + 10 R{3,6}
   + 10 R{3,7} + 10 R{3,8} + 10 R{3,10} + 10 R{3,11} + 10 R{3,12}
   + 10 R{3,13} + 10 R{3,15} + 10 R{3,16} + 10 R{3,17} + 10 R{3,19}
   + 10 R{5,10} + 10 R{5,13} + 10 R{5,14} + 10 R{5,16} + 10 R{5,18}
   + 10 R{6,19} + 10 R{6,21} + 10 R{6,25} <= 10
 R2_25: 13 R{3,17} + 13 R{4,1} + 13 R{4,2} + 13 R{4,3} + 13 R{4,4}
   + 13 R{4,5} + 13 R{4,6} + 13 R{4,7} + 13 R{4,8} + 13 R{4,9} + 13 R{4,10}
   + 13 R{4,11} + 13 R{4,12} + 13 R{4,13} + 13 R{4,15} + 13 R{4,16}
   + 13 R{4,17} + 13 R{6,21} <= 13
 R2_26: 6 R{1,1} + 6 R{1,2} + 6 R{1,3} + 6 R{1,5} + 6 R{1,6} + 6 R{1,7}
   + 6 R{1,8} + 6 R{1,9} + 6 R{5,10} + 6 R{5,15} <= 6
 R2_27: 5 R{3,4} + 5 R{3,6} + 5 R{3,9} + 5 R{3,10} + 5 R{3,13} + 5 R{3,15}
   + 5 R{3,16} + 5 R{3,18} + 5 R{4,13} + 5 R{5,3} + 5 R{5,6} + 5 R{6,4}
   + 5 R{6,6} + 5 R{6,7} + 5 R{6,8} + 5 R{6,9} + 5 R{6,10} + 5 R{6,13}
   + 5 R{6,14} + 5 R{6,17} + 5 R{6,19} + 5 R{6,26} <= 5
 R2_28: <= 0
 R2_29: <= 0
 R2_30: <= 0
 R2_31: 6 R{6,1} + 6 R{6,2} + 6 R{6,9} + 6 R{6,11} + 6 R{6,12} + 6 R{6,15}
   + 6 R{6,23} <= 6
 R2_32: 7 R{0,4} + 7 R{0,5} + 7 R{5,8} + 7 R{5,9} + 7 R{5,10} + 7 R{5,15}
   <= 7
 R2_33: 12 R{3,8} + 12 R{3,9} + 12 R{3,13} + 12 R{3,14} + 12 R{3,17}
   + 12 R{3,18} + 12 R{3,19} + 12 R{6,10} + 12 R{6,14} + 12 R{6,17}
   + 12 R{6,19} + 12 R{6,22} + 12 R{6,25} <= 12
 R2_34: 5 R{3,12} + 5 R{3,15} + 5 R{6,16} + 5 R{6,18} + 5 R{6,21}
   + 5 R{6,23} + 5 R{6,25} + 5 R{6,27} <= 5
 R2_35: <= 0
 R2_36: <= 0
 R2_37: 5 R{2,15} + 5 R{2,16} + 5 R{5,1} + 5 R{5,10} + 5 R{5,11}
   + 5 R{5,13} + 5 R{5,14} <= 5
 R2_38: <= 0
 R2_39: <= 0
 R2_40: 15 R{2,3} + 15 R{2,4} + 15 R{2,5} + 15 R{2,9} + 15 R{2,10}
   + 15 R{2,11} + 15 R{2,15} + 15 R{2,16} + 15 R{2,17} <= 15
 R2_41: 5 R{3,2} + 5 R{3,3} + 5 R{3,5} + 5 R{3,7} + 5 R{3,10} + 5 R{3,11}
   + 5 R{4,18} + 5 R{6,5} + 5 R{6,7} + 5 R{6,15} + 5 R{6,16} + 5 R{6,18}
   <= 5
 R2_42: 4 R{2,3} + 4 R{2,4} + 4 R{2,5} + 4 R{2,10} + 4 R{2,11} + 4 R{2,15}
   + 4 R{2,16} <= 4
 R2_43: <= 0
 R2_44: <= 0
 R2_45: <= 0
 R2_46: 9 R{0,10} + 9 R{2,14} + 9 R{4,5} + 9 R{4,6} + 9 R{4,10} + 9 R{4,11}
   + 9 R{4,12} + 9 R{4,13} + 9 R{4,14} + 9 R{4,15} <= 9
 R2_47: 7 R{1,1} + 7 R{1,2} + 7 R{1,5} + 7 R{1,6} + 7 R{1,8} <= 7
 R2_48: 4 R{4,1} + 4 R{4,2} + 4 R{4,3} + 4 R{4,4} + 4 R{4,5} + 4 R{4,6}
   + 4 R{4,9} + 4 R{4,10} + 4 R{4,11} + 4 R{4,13} + 4 R{4,15} + 4 R{4,16}
   + 4 R{4,17} + 4 R{4,18} <= 4
 R2_49: <= 0
 R2_50: <= 0
 R2_51: 11 R{3,7} + 11 R{5,12} <= 11
 R2_52: 10 R{4,16} <= 10
 R2_53: 13 R{4,1} + 13 R{4,2} + 13 R{4,4} + 13 R{4,5} + 13 R{4,6}
   + 13 R{4,10} + 13 R{4,12} + 13 R{4,14} + 13 R{4,17} + 13 R{4,18}
   + 13 R{4,19} <= 13
 R2_54: 9 R{3,1} + 9 R{3,2} + 9 R{3,3} + 9 R{3,4} + 9 R{3,5} + 9 R{3,7}
   + 9 R{3,8} + 9 R{3,9} + 9 R{3,11} + 9 R{3,12} + 9 R{3,13} + 9 R{3,14}
   + 9 R{3,16} + 9 R{3,18} + 9 R{3,20} <= 9
 R2_55: <= 0
 R2_56: 6 R{2,0} + 6 R{2,1} + 6 R{2,6} + 6 R{2,12} + 6 R{2,14} + 6 R{4,3}
   + 6 R{4,7} + 6 R{4,16} + 6 R{6,2} + 6 R{6,3} + 6 R{6,4} + 6 R{6,6}
   + 6 R{6,8} + 6 R{6,11} + 6 R{6,12} + 6 R{6,20} + 6 R{6,23} + 6 R{6,24}
   <= 6
 R2_57: <= 0
 R2_58: <= 0
 R2_59: 10 R{3,20} + 10 R{4,8} + 10 R{4,9} + 10 R{4,11} + 10 R{4,13}
   + 10 R{4,15} + 10 R{6,13} + 10 R{6,22} + 10 R{6,26} + 10 R{6,27} <= 10
 R2_60: <= 0
 R2_61: 9 R{2,8} + 9 R{2,12} + 9 R{4,4} + 9 R{4,9} + 9 R{6,18} <= 9
 R2_62: <= 0
 R2_63: <= 0
 R2_64: <= 0
 R2_65: 5 R{2,0} + 5 R{2,1} + 5 R{2,12} + 5 R{6,1} + 5 R{6,2} + 5 R{6,3}
   + 5 R{6,5} + 5 R{6,9} + 5 R{6,11} + 5 R{6,12} + 5 R{6,15} + 5 R{6,16}
   + 5 R{6,20} + 5 R{6,24} <= 5
 R2_66: 7 R{3,11} + 7 R{6,21} + 7 R{6,25} + 7 R{6,27} <= 7
 R2_67: 3 R{0,1} + 3 R{0,2} + 3 R{0,6} + 3 R{0,9} + 3 R{0,10} + 3 R{2,0}
   + 3 R{2,1} + 3 R{2,6} + 3 R{2,7} + 3 R{2,8} + 3 R{2,13} + 3 R{2,14}
   + 3 R{6,6} <= 3
 R2_68: 6 R{4,1} + 6 R{4,4} + 6 R{4,6} + 6 R{4,9} + 6 R{4,10} + 6 R{4,14}
   + 6 R{4,19} + 6 R{5,17} + 6 R{6,21} + 6 R{6,22} + 6 R{6,27} <= 6
 R2_69: 7 R{1,8} + 7 R{3,14} + 7 R{4,1} + 7 R{4,2} + 7 R{4,3} + 7 R{4,4}
   + 7 R{4,5} + 7 R{4,6} + 7 R{4,7} + 7 R{4,8} + 7 R{4,9} + 7 R{4,10}
   + 7 R{4,11} + 7 R{4,12} + 7 R{4,14} + 7 R{4,16} + 7 R{4,17} + 7 R{4,18}
   + 7 R{4,19} + 7 R{5,5} + 7 R{5,18} <= 7
 R2_70: 11 R{6,1} + 11 R{6,2} + 11 R{6,3} + 11 R{6,4} + 11 R{6,9}
   + 11 R{6,11} + 11 R{6,12} + 11 R{6,20} + 11 R{6,24} <= 11
 R2_71: 7 R{3,1} + 7 R{3,2} + 7 R{3,3} + 7 R{3,5} + 7 R{3,8} + 7 R{3,11}
   + 7 R{3,12} + 7 R{3,15} + 7 R{3,17} + 7 R{3,19} + 7 R{3,20} + 7 R{6,2}
   + 7 R{6,3} + 7 R{6,5} + 7 R{6,11} + 7 R{6,12} + 7 R{6,16} + 7 R{6,18}
   + 7 R{6,20} + 7 R{6,23} + 7 R{6,24} + 7 R{6,27} <= 7
 R2_72: <= 0
 R2_73: <= 0
 R2_74: 5 R{5,1} + 5 R{5,2} + 5 R{5,4} + 5 R{5,7} + 5 R{5,8} + 5 R{5,9}
   + 5 R{5,11} <= 5
 R2_75: 8 R{6,1} + 8 R{6,2} + 8 R{6,3} + 8 R{6,4} + 8 R{6,5} + 8 R{6,6}
   + 8 R{6,7} + 8 R{6,8} + 8 R{6,9} + 8 R{6,11} + 8 R{6,12} + 8 R{6,13}
   + 8 R{6,15} + 8 R{6,16} + 8 R{6,18} + 8 R{6,20} + 8 R{6,22} + 8 R{6,23}
   + 8 R{6,24} + 8 R{6,26} <= 8
 R2_76: 12 R{0,4} + 12 R{3,3} + 12 R{3,7} + 12 R{3,20} + 12 R{5,13} <= 12
 R2_77: 7 R{0,11} + 7 R{1,2} + 7 R{2,4} + 7 R{2,5} + 7 R{2,10} + 7 R{2,11}
   + 7 R{2,15} + 7 R{2,16} + 7 R{2,17} + 7 R{4,2} + 7 R{4,12} + 7 R{4,13}
   + 7 R{4,17} + 7 R{5,15} + 7 R{5,17} + 7 R{6,3} + 7 R{6,4} + 7 R{6,5}
   + 7 R{6,6} + 7 R{6,7} + 7 R{6,16} + 7 R{6,18} + 7 R{6,20} + 7 R{6,22}
   + 7 R{6,24} + 7 R{6,26} <= 7
Bounds
End
